\ This file has been generated by DOcplex
\ ENCODING=ISO-8859-1
\Problem name: 2generals problem

Minimize
 obj: V
Subject To
 c1: V + 3.738587676905 a1_u0_x0 + 5 a1_u1_x0 + 4.906520967530 a1_u0_x1
     + 5 a1_u1_x1 >= 0
 c2: V + 5 a1_u0_x0 - 2.500000000000 a1_u1_x0 + 5 a1_u0_x1 + 10 a1_u1_x1 >= 0
 c3: a1_u0_x0 + a1_u1_x0 = 1
 c4: a1_u0_x1 + a1_u1_x1 = 1

Bounds
       V Free
End
